% seed = 0

mint = 20;
% maxt = 56;

nActs = 22;
dur = [0,2,3,2,5,6,2,2,1,3,5,2,5,1,3,3,3,3,1,1,3,0];

nSkills = 9;
sreq = [| 0,0,0,0,0,0,0,0,0,
	| 0,0,0,0,0,2,2,2,2,
	| 1,0,1,2,2,0,3,2,0,
	| 1,0,1,1,0,1,1,0,1,
	| 1,2,0,2,2,0,1,3,0,
	| 0,3,0,1,1,0,0,2,1,
	| 0,2,2,2,2,0,1,0,1,
	| 0,0,0,0,0,0,1,1,0,
	| 0,0,1,0,1,0,1,0,0,
	| 0,0,3,0,0,0,1,1,1,
	| 0,0,0,1,2,2,2,1,1,
	| 0,2,1,1,2,0,1,1,1,
	| 0,1,0,0,0,0,0,0,2,
	| 1,1,0,1,0,1,1,1,0,
	| 0,1,2,0,0,1,0,1,0,
	| 0,1,1,1,1,1,0,0,1,
	| 1,2,3,0,0,2,1,0,0,
	| 0,1,1,1,1,1,3,0,0,
	| 0,0,0,0,0,0,1,0,1,
	| 1,0,2,2,0,2,0,2,2,
	| 0,0,0,0,0,0,4,1,0,
	| 0,0,0,0,0,0,0,0,0, |];

% SumOfsreq = 138;

nResources = 15;
mastery = [| true,true,true,false,true,true,true,true,false,
	| true,true,true,true,true,false,true,false,true,
	| false,true,true,true,false,true,true,true,true,
	| true,false,true,true,true,false,true,true,true,
	| true,true,true,false,true,false,true,true,true,
	| true,true,true,true,false,true,true,true,false,
	| true,true,true,true,false,true,true,false,true,
	| true,true,true,false,true,false,true,true,true,
	| false,true,true,true,true,false,true,true,true,
	| true,true,true,true,false,false,true,true,true,
	| true,true,true,true,true,true,false,false,true,
	| true,true,false,true,true,true,false,true,true,
	| true,true,true,true,true,true,false,false,true,
	| true,false,true,true,true,true,false,true,true,
	| false,true,true,true,false,true,true,true,true, |];

nPrecs = 40;
pred = [1,1,1,2,2,2,3,4,4,5,5,6,6,6,7,7,7,8,9,9,10,11,11,11,12,12,12,13,13,14,14,15,15,16,17,18,18,19,20,21];
succ = [2,3,4,17,5,14,6,9,8,10,11,13,7,16,9,15,8,18,17,18,12,18,12,16,21,13,15,19,20,15,16,19,20,21,20,19,21,22,22,22];

nUnrels = 89;
unpred = [2,2,2,2,2,2,3,3,3,3,3,3,4,4,4,4,4,4,4,4,4,4,5,5,5,5,5,5,6,6,6,6,7,7,7,7,7,7,8,8,8,8,8,8,8,8,8,8,9,9,9,9,9,9,9,10,10,10,10,10,11,11,12,12,12,12,13,13,13,13,13,13,14,14,15,15,15,15,16,16,16,16,17,17,17,18,19,19,20];
unsucc = [3,4,6,7,8,9,4,5,10,11,12,14,5,6,7,10,11,12,13,14,15,16,6,7,8,9,14,17,10,11,12,14,10,11,12,13,14,16,9,10,11,12,13,14,15,16,17,20,10,11,12,13,14,15,16,11,14,16,17,18,14,17,14,16,17,18,14,15,16,17,18,21,17,18,16,17,18,21,17,18,19,20,18,19,21,20,20,21,21];

USEFUL_RES = [{},
	{1,2,3,4,5,6,7,8,9,10,11,12,13,14,15},
	{1,2,3,4,5,6,7,8,9,10,11,12,13,14,15},
	{1,2,3,4,5,6,7,8,9,10,11,12,13,14,15},
	{1,2,3,4,5,6,7,8,9,10,11,12,13,14,15},
	{1,2,3,4,5,6,7,8,9,10,11,12,13,14,15},
	{1,2,3,4,5,6,7,8,9,10,11,12,13,14,15},
	{1,2,3,4,5,6,7,8,9,10,12,14,15},
	{1,2,3,4,5,6,7,8,9,10,11,12,13,14,15},
	{1,2,3,4,5,6,7,8,9,10,11,12,13,14,15},
	{1,2,3,4,5,6,7,8,9,10,11,12,13,14,15},
	{1,2,3,4,5,6,7,8,9,10,11,12,13,14,15},
	{1,2,3,4,5,6,7,8,9,10,11,12,13,14,15},
	{1,2,3,4,5,6,7,8,9,10,11,12,13,14,15},
	{1,2,3,4,5,6,7,8,9,10,11,12,13,14,15},
	{1,2,3,4,5,6,7,8,9,10,11,12,13,14,15},
	{1,2,3,4,5,6,7,8,9,10,11,12,13,14,15},
	{1,2,3,4,5,6,7,8,9,10,11,12,13,14,15},
	{1,2,3,4,5,6,7,8,9,10,11,12,13,14,15},
	{1,2,3,4,5,6,7,8,9,10,11,12,13,14,15},
	{1,2,3,4,5,6,7,8,9,10,12,14,15},
	{}];

POTENTIAL_ACT = [{2,3,4,5,6,7,8,9,10,11,12,13,14,15,16,17,18,19,20,21},
	{2,3,4,5,6,7,8,9,10,11,12,13,14,15,16,17,18,19,20,21},
	{2,3,4,5,6,7,8,9,10,11,12,13,14,15,16,17,18,19,20,21},
	{2,3,4,5,6,7,8,9,10,11,12,13,14,15,16,17,18,19,20,21},
	{2,3,4,5,6,7,8,9,10,11,12,13,14,15,16,17,18,19,20,21},
	{2,3,4,5,6,7,8,9,10,11,12,13,14,15,16,17,18,19,20,21},
	{2,3,4,5,6,7,8,9,10,11,12,13,14,15,16,17,18,19,20,21},
	{2,3,4,5,6,7,8,9,10,11,12,13,14,15,16,17,18,19,20,21},
	{2,3,4,5,6,7,8,9,10,11,12,13,14,15,16,17,18,19,20,21},
	{2,3,4,5,6,7,8,9,10,11,12,13,14,15,16,17,18,19,20,21},
	{2,3,4,5,6,7,9,10,11,12,13,14,15,16,17,18,19,20},
	{2,3,4,5,6,7,8,9,10,11,12,13,14,15,16,17,18,19,20,21},
	{2,3,4,5,6,7,9,10,11,12,13,14,15,16,17,18,19,20},
	{2,3,4,5,6,7,8,9,10,11,12,13,14,15,16,17,18,19,20,21},
	{2,3,4,5,6,7,8,9,10,11,12,13,14,15,16,17,18,19,20,21}];
